GLPSOL: GLPK LP/MIP Solver, v4.65
Parameter(s) specified in the command line:
 --model solver_drone.mod --data solver_drone_data_10.dat --output solver_drone_solution_10_3.log
 --log solver_drone_cmd_output_10_3.log --tmlim 20
Reading model section from solver_drone.mod...
41 lines were read
Reading data section from solver_drone_data_10.dat...
37 lines were read
Generating f...
Generating package_deliverd_once...
Generating package_well_delivered...
Generating time_spent_flying...
Generating autonomy_not_exceeded...
Generating check_time_max...
Model has been successfully generated
GLPK Integer Optimizer, v4.65
532 rows, 499 columns, 1540 non-zeros
499 integer variables, 495 of which are binary
Preprocessing...
36 rows, 499 columns, 1044 non-zeros
499 integer variables, 495 of which are binary
Scaling...
 A: min|aij| =  1.000e+00  max|aij| =  3.088e+03  ratio =  3.088e+03
GM: min|aij| =  5.550e-01  max|aij| =  1.802e+00  ratio =  3.246e+00
EQ: min|aij| =  3.081e-01  max|aij| =  1.000e+00  ratio =  3.246e+00
2N: min|aij| =  2.500e-01  max|aij| =  1.031e+00  ratio =  4.125e+00
Constructing initial basis...
Size of triangular part is 36
Solving LP relaxation...
GLPK Simplex Optimizer, v4.65
36 rows, 499 columns, 1044 non-zeros
      0: obj =   0.000000000e+00 inf =   7.048e+02 (1)
     35: obj =   7.517333333e+03 inf =   2.665e-15 (0)
*    48: obj =   7.517333333e+03 inf =   2.665e-15 (0)
OPTIMAL LP SOLUTION FOUND
Integer optimization begins...
Long-step dual simplex will be used
+    48: mip =     not found yet >=              -inf        (1; 0)
+   110: >>>>>   7.776000000e+03 >=   7.518000000e+03   3.3% (17; 0)
+   158: >>>>>   7.576000000e+03 >=   7.518000000e+03   0.8% (16; 19)
+   307: >>>>>   7.544000000e+03 >=   7.518000000e+03   0.3% (23; 23)
+   831: >>>>>   7.536000000e+03 >=   7.518000000e+03   0.2% (43; 67)
+  3828: >>>>>   7.528000000e+03 >=   7.518000000e+03   0.1% (71; 427)
+139475: mip =   7.528000000e+03 >=   7.518000000e+03   0.1% (1402; 14973)
+262377: mip =   7.528000000e+03 >=   7.518000000e+03   0.1% (1065; 34059)
+378543: mip =   7.528000000e+03 >=   7.518000000e+03   0.1% (1261; 50657)
+386057: mip =   7.528000000e+03 >=     tree is empty   0.0% (0; 60339)
INTEGER OPTIMAL SOLUTION FOUND
Time used:   15.8 secs
Memory used: 14.4 Mb (15102136 bytes)
The package 1 is delivered by the drone 1 to the house 1
The package 2 is delivered by the drone 1 to the house 1
The package 3 is delivered by the drone 1 to the house 1
The package 4 is delivered by the drone 2 to the house 2
The package 5 is delivered by the drone 3 to the house 2
The package 6 is delivered by the drone 3 to the house 2
The package 7 is delivered by the drone 3 to the house 3
The package 8 is delivered by the drone 2 to the house 4
The package 9 is delivered by the drone 1 to the house 6
The package 10 is delivered by the drone 2 to the house 7
The package 11 is delivered by the drone 3 to the house 8
The package 12 is delivered by the drone 1 to the house 8
The package 13 is delivered by the drone 2 to the house 9
The package 14 is delivered by the drone 2 to the house 10
The package 15 is delivered by the drone 3 to the house 10
Model has been successfully processed
Writing MIP solution to 'solver_drone_solution_10_3.log'...
